33D32945 STP File, STP Format Version 1.0

SECTION Comment
Name "i640-204-PCST"
Creator "Indaco Biazzo" 
Remark "derived from Incidence graph by Cees Duin"
END

SECTION Graph
Nodes 640
Edges 960
E 1 46 309.000000
E 1 67 199.000000
E 1 91 205.000000
E 1 101 195.000000
E 1 362 201.000000
E 1 515 200.000000
E 2 8 300.000000
E 2 224 195.000000
E 2 354 185.000000
E 2 404 195.000000
E 2 566 196.000000
E 3 449 202.000000
E 4 47 296.000000
E 4 51 197.000000
E 4 55 193.000000
E 4 256 200.000000
E 4 291 201.000000
E 4 413 196.000000
E 4 640 198.000000
E 5 290 200.000000
E 5 310 198.000000
E 5 546 191.000000
E 6 441 203.000000
E 7 312 203.000000
E 7 495 208.000000
E 8 152 208.000000
E 8 466 193.000000
E 8 575 192.000000
E 9 294 194.000000
E 9 580 193.000000
E 10 48 303.000000
E 10 349 202.000000
E 10 488 200.000000
E 11 536 194.000000
E 12 103 203.000000
E 12 107 203.000000
E 12 611 196.000000
E 13 130 204.000000
E 13 360 201.000000
E 13 484 201.000000
E 14 81 201.000000
E 14 534 185.000000
E 14 586 201.000000
E 15 345 201.000000
E 16 75 200.000000
E 16 96 205.000000
E 16 586 199.000000
E 17 210 193.000000
E 17 259 199.000000
E 18 504 204.000000
E 18 549 198.000000
E 19 71 207.000000
E 19 125 204.000000
E 19 249 199.000000
E 19 372 197.000000
E 19 448 195.000000
E 19 467 193.000000
E 19 533 192.000000
E 19 554 204.000000
E 19 603 197.000000
E 20 37 305.000000
E 20 220 196.000000
E 20 398 202.000000
E 21 246 202.000000
E 21 369 206.000000
E 21 454 200.000000
E 22 387 211.000000
E 22 616 199.000000
E 23 49 307.000000
E 23 296 202.000000
E 24 330 199.000000
E 24 499 202.000000
E 24 519 205.000000
E 25 267 202.000000
E 25 424 199.000000
E 26 295 205.000000
E 26 487 192.000000
E 27 125 195.000000
E 27 149 203.000000
E 27 417 199.000000
E 28 116 206.000000
E 28 165 203.000000
E 28 312 203.000000
E 28 396 196.000000
E 28 428 200.000000
E 28 559 204.000000
E 29 361 201.000000
E 29 436 196.000000
E 30 37 299.000000
E 30 70 192.000000
E 30 79 201.000000
E 30 464 193.000000
E 30 527 198.000000
E 31 449 198.000000
E 31 616 194.000000
E 32 70 196.000000
E 33 303 201.000000
E 33 582 202.000000
E 34 292 198.000000
E 34 398 199.000000
E 35 77 205.000000
E 36 149 203.000000
E 36 401 199.000000
E 37 71 199.000000
E 37 282 208.000000
E 37 307 197.000000
E 37 520 202.000000
E 38 115 208.000000
E 38 190 203.000000
E 38 280 206.000000
E 39 104 194.000000
E 39 332 206.000000
E 39 363 205.000000
E 39 425 198.000000
E 39 568 202.000000
E 39 621 203.000000
E 40 140 201.000000
E 40 521 203.000000
E 41 175 202.000000
E 41 337 189.000000
E 41 623 200.000000
E 42 126 197.000000
E 42 403 200.000000
E 43 99 198.000000
E 43 297 201.000000
E 43 370 196.000000
E 44 337 194.000000
E 44 557 214.000000
E 45 414 195.000000
E 45 436 198.000000
E 45 442 198.000000
E 46 238 196.000000
E 46 329 196.000000
E 47 400 198.000000
E 47 472 194.000000
E 47 509 206.000000
E 47 563 203.000000
E 48 360 200.000000
E 48 450 195.000000
E 49 106 190.000000
E 49 138 204.000000
E 49 248 196.000000
E 50 148 205.000000
E 50 255 198.000000
E 50 466 205.000000
E 50 505 202.000000
E 51 139 103.000000
E 52 281 99.000000
E 52 486 106.000000
E 52 506 89.000000
E 53 102 96.000000
E 54 103 104.000000
E 54 570 107.000000
E 55 282 95.000000
E 55 290 98.000000
E 55 584 102.000000
E 56 338 92.000000
E 56 353 97.000000
E 56 541 101.000000
E 56 602 108.000000
E 57 83 92.000000
E 58 260 105.000000
E 58 320 87.000000
E 58 344 87.000000
E 58 370 105.000000
E 58 585 105.000000
E 59 333 92.000000
E 60 367 97.000000
E 60 601 101.000000
E 60 604 91.000000
E 61 206 94.000000
E 61 523 98.000000
E 62 293 99.000000
E 62 589 95.000000
E 63 159 93.000000
E 63 167 99.000000
E 64 89 103.000000
E 64 105 103.000000
E 64 418 95.000000
E 65 70 111.000000
E 65 160 109.000000
E 65 429 106.000000
E 65 600 103.000000
E 66 127 107.000000
E 66 180 106.000000
E 66 397 97.000000
E 66 419 103.000000
E 66 612 96.000000
E 67 80 100.000000
E 67 112 100.000000
E 67 247 99.000000
E 67 332 95.000000
E 67 386 99.000000
E 67 426 97.000000
E 67 559 97.000000
E 68 126 90.000000
E 69 120 104.000000
E 69 202 93.000000
E 69 310 106.000000
E 70 226 96.000000
E 71 296 99.000000
E 71 334 94.000000
E 71 381 97.000000
E 71 397 102.000000
E 71 405 97.000000
E 71 487 93.000000
E 71 513 98.000000
E 71 589 92.000000
E 71 609 106.000000
E 72 403 96.000000
E 72 444 90.000000
E 73 363 93.000000
E 73 460 102.000000
E 74 165 103.000000
E 75 502 98.000000
E 75 505 103.000000
E 75 628 98.000000
E 76 95 102.000000
E 77 151 97.000000
E 77 294 99.000000
E 77 589 102.000000
E 78 178 101.000000
E 78 182 102.000000
E 78 205 103.000000
E 78 319 94.000000
E 78 532 102.000000
E 79 98 94.000000
E 80 169 100.000000
E 80 176 103.000000
E 80 601 94.000000
E 81 144 96.000000
E 81 276 100.000000
E 82 261 97.000000
E 83 213 105.000000
E 83 501 92.000000
E 84 287 94.000000
E 84 459 103.000000
E 85 164 100.000000
E 85 292 93.000000
E 86 245 103.000000
E 86 607 97.000000
E 87 135 96.000000
E 87 165 107.000000
E 87 176 109.000000
E 87 446 106.000000
E 87 472 104.000000
E 88 273 106.000000
E 88 501 97.000000
E 90 310 103.000000
E 90 367 100.000000
E 90 495 92.000000
E 91 232 101.000000
E 91 282 106.000000
E 91 469 99.000000
E 91 570 95.000000
E 91 587 99.000000
E 92 282 96.000000
E 92 296 108.000000
E 92 305 91.000000
E 92 410 98.000000
E 92 500 92.000000
E 93 133 108.000000
E 94 239 102.000000
E 94 440 103.000000
E 95 439 113.000000
E 96 164 102.000000
E 96 217 103.000000
E 96 246 93.000000
E 96 334 99.000000
E 96 379 94.000000
E 96 415 102.000000
E 96 552 98.000000
E 96 618 100.000000
E 97 353 96.000000
E 97 526 102.000000
E 98 316 91.000000
E 99 232 102.000000
E 99 389 106.000000
E 100 146 104.000000
E 100 225 110.000000
E 100 280 106.000000
E 100 524 96.000000
E 100 596 95.000000
E 101 350 99.000000
E 101 562 96.000000
E 102 221 86.000000
E 102 271 99.000000
E 102 472 95.000000
E 103 115 105.000000
E 103 434 100.000000
E 103 559 105.000000
E 104 321 98.000000
E 104 557 102.000000
E 105 116 99.000000
E 106 392 101.000000
E 107 291 96.000000
E 108 210 112.000000
E 108 236 94.000000
E 109 159 97.000000
E 109 370 105.000000
E 109 467 105.000000
E 110 440 100.000000
E 111 328 102.000000
E 111 380 105.000000
E 111 413 95.000000
E 112 444 90.000000
E 112 477 102.000000
E 113 369 106.000000
E 114 205 104.000000
E 114 434 100.000000
E 115 430 94.000000
E 115 576 100.000000
E 115 600 101.000000
E 116 299 103.000000
E 117 527 97.000000
E 117 577 105.000000
E 118 131 99.000000
E 119 459 98.000000
E 119 567 108.000000
E 120 258 93.000000
E 120 317 91.000000
E 120 337 101.000000
E 120 429 94.000000
E 120 565 99.000000
E 120 615 100.000000
E 120 623 81.000000
E 120 634 102.000000
E 121 320 99.000000
E 122 601 107.000000
E 123 289 102.000000
E 123 524 95.000000
E 123 529 100.000000
E 124 322 103.000000
E 126 363 96.000000
E 126 416 102.000000
E 126 611 96.000000
E 127 275 105.000000
E 128 271 92.000000
E 129 495 95.000000
E 130 171 105.000000
E 131 306 97.000000
E 131 365 101.000000
E 131 473 95.000000
E 131 601 97.000000
E 131 602 107.000000
E 132 271 97.000000
E 132 431 102.000000
E 132 545 103.000000
E 133 451 101.000000
E 134 175 99.000000
E 134 344 106.000000
E 136 348 105.000000
E 137 317 98.000000
E 137 575 98.000000
E 138 294 101.000000
E 138 443 105.000000
E 138 538 96.000000
E 138 546 105.000000
E 139 284 105.000000
E 139 401 101.000000
E 139 544 92.000000
E 140 383 92.000000
E 140 484 100.000000
E 141 306 97.000000
E 141 403 99.000000
E 141 495 90.000000
E 142 155 108.000000
E 142 327 102.000000
E 143 223 106.000000
E 143 601 104.000000
E 144 309 104.000000
E 144 566 88.000000
E 145 377 96.000000
E 145 483 96.000000
E 145 579 98.000000
E 146 485 99.000000
E 147 155 102.000000
E 147 545 94.000000
E 149 327 94.000000
E 150 496 98.000000
E 150 637 99.000000
E 151 226 102.000000
E 152 162 100.000000
E 152 474 104.000000
E 152 564 89.000000
E 153 504 103.000000
E 153 596 107.000000
E 154 410 105.000000
E 156 179 105.000000
E 156 240 101.000000
E 156 287 111.000000
E 157 232 107.000000
E 157 633 89.000000
E 158 408 94.000000
E 158 626 105.000000
E 159 221 105.000000
E 159 222 103.000000
E 159 267 104.000000
E 159 272 104.000000
E 159 458 103.000000
E 159 531 100.000000
E 160 284 99.000000
E 160 341 104.000000
E 160 351 104.000000
E 160 597 100.000000
E 161 304 96.000000
E 161 502 97.000000
E 161 524 92.000000
E 162 337 96.000000
E 162 601 100.000000
E 163 175 93.000000
E 163 323 105.000000
E 163 405 107.000000
E 165 492 95.000000
E 166 368 106.000000
E 166 464 94.000000
E 167 366 101.000000
E 167 536 96.000000
E 168 389 103.000000
E 168 636 104.000000
E 169 410 106.000000
E 169 531 100.000000
E 170 319 96.000000
E 170 338 104.000000
E 170 348 90.000000
E 170 470 90.000000
E 171 462 96.000000
E 171 571 105.000000
E 171 598 103.000000
E 172 451 104.000000
E 172 483 97.000000
E 173 384 99.000000
E 173 594 101.000000
E 173 597 94.000000
E 174 291 96.000000
E 174 450 96.000000
E 175 215 99.000000
E 175 227 97.000000
E 175 337 96.000000
E 175 417 97.000000
E 175 469 102.000000
E 177 296 99.000000
E 177 402 94.000000
E 177 569 95.000000
E 178 331 86.000000
E 178 338 92.000000
E 178 620 96.000000
E 179 208 98.000000
E 179 282 89.000000
E 179 591 95.000000
E 180 353 100.000000
E 180 403 97.000000
E 180 558 102.000000
E 181 192 107.000000
E 181 197 98.000000
E 181 234 103.000000
E 181 293 97.000000
E 181 332 100.000000
E 181 510 92.000000
E 183 393 94.000000
E 183 454 99.000000
E 183 481 99.000000
E 184 194 95.000000
E 184 230 94.000000
E 185 341 102.000000
E 185 353 100.000000
E 185 419 94.000000
E 186 228 106.000000
E 186 374 104.000000
E 186 418 96.000000
E 186 472 98.000000
E 186 616 96.000000
E 187 208 96.000000
E 187 491 104.000000
E 187 594 94.000000
E 188 246 109.000000
E 188 384 100.000000
E 189 213 98.000000
E 189 271 101.000000
E 189 283 101.000000
E 190 287 101.000000
E 191 244 100.000000
E 191 344 98.000000
E 191 419 110.000000
E 191 608 94.000000
E 192 326 96.000000
E 192 542 105.000000
E 192 563 95.000000
E 193 363 98.000000
E 194 305 96.000000
E 195 208 106.000000
E 195 460 96.000000
E 195 465 99.000000
E 195 502 98.000000
E 196 200 89.000000
E 196 264 111.000000
E 196 540 99.000000
E 198 351 99.000000
E 198 442 101.000000
E 198 551 105.000000
E 199 492 97.000000
E 200 209 91.000000
E 200 223 91.000000
E 200 445 96.000000
E 200 558 102.000000
E 200 595 102.000000
E 201 204 105.000000
E 201 326 98.000000
E 201 347 93.000000
E 201 471 100.000000
E 201 611 108.000000
E 201 618 103.000000
E 202 273 102.000000
E 202 296 103.000000
E 203 310 98.000000
E 203 497 95.000000
E 203 559 98.000000
E 204 385 104.000000
E 204 410 102.000000
E 205 332 100.000000
E 205 343 104.000000
E 207 574 101.000000
E 207 591 99.000000
E 207 631 101.000000
E 208 257 97.000000
E 209 224 104.000000
E 209 232 90.000000
E 209 243 103.000000
E 209 277 102.000000
E 209 364 95.000000
E 209 457 101.000000
E 209 613 95.000000
E 210 286 96.000000
E 210 326 95.000000
E 210 330 97.000000
E 210 450 100.000000
E 210 473 101.000000
E 210 483 102.000000
E 210 524 103.000000
E 210 574 102.000000
E 211 432 102.000000
E 211 542 106.000000
E 211 628 100.000000
E 212 322 101.000000
E 212 377 98.000000
E 212 635 96.000000
E 213 450 105.000000
E 214 282 100.000000
E 214 496 95.000000
E 216 425 106.000000
E 218 235 87.000000
E 218 429 104.000000
E 219 536 99.000000
E 220 574 94.000000
E 221 422 101.000000
E 221 606 99.000000
E 222 424 97.000000
E 222 552 105.000000
E 223 242 95.000000
E 223 403 97.000000
E 224 394 97.000000
E 224 420 102.000000
E 225 241 105.000000
E 225 389 96.000000
E 225 400 91.000000
E 225 448 103.000000
E 225 530 104.000000
E 225 608 101.000000
E 228 416 103.000000
E 228 451 95.000000
E 228 480 97.000000
E 228 520 114.000000
E 228 561 95.000000
E 229 396 104.000000
E 229 522 102.000000
E 229 523 108.000000
E 230 271 97.000000
E 230 273 91.000000
E 230 506 95.000000
E 230 589 91.000000
E 231 241 90.000000
E 232 390 99.000000
E 232 405 107.000000
E 232 443 97.000000
E 232 511 87.000000
E 232 574 96.000000
E 232 577 100.000000
E 232 597 101.000000
E 233 584 104.000000
E 233 596 98.000000
E 233 638 97.000000
E 234 365 94.000000
E 234 380 100.000000
E 234 403 98.000000
E 234 443 96.000000
E 234 571 98.000000
E 235 418 99.000000
E 236 469 97.000000
E 236 497 96.000000
E 237 533 106.000000
E 238 287 98.000000
E 238 353 102.000000
E 238 411 92.000000
E 238 574 100.000000
E 240 243 101.000000
E 240 411 97.000000
E 240 556 99.000000
E 241 609 112.000000
E 243 283 94.000000
E 243 365 90.000000
E 243 391 94.000000
E 243 509 94.000000
E 244 256 97.000000
E 244 471 107.000000
E 244 629 106.000000
E 245 276 109.000000
E 245 490 91.000000
E 245 545 102.000000
E 246 473 99.000000
E 246 590 98.000000
E 249 454 107.000000
E 250 388 104.000000
E 250 406 102.000000
E 251 328 100.000000
E 251 509 97.000000
E 251 614 95.000000
E 252 406 101.000000
E 252 459 103.000000
E 252 552 101.000000
E 253 263 95.000000
E 253 534 102.000000
E 254 298 99.000000
E 254 361 96.000000
E 255 377 96.000000
E 255 632 111.000000
E 257 528 107.000000
E 257 584 107.000000
E 257 637 106.000000
E 258 537 100.000000
E 259 433 102.000000
E 259 457 96.000000
E 259 503 100.000000
E 260 296 100.000000
E 260 430 99.000000
E 261 294 96.000000
E 262 359 109.000000
E 263 405 93.000000
E 264 596 102.000000
E 265 438 98.000000
E 265 599 106.000000
E 266 285 101.000000
E 266 327 98.000000
E 268 362 101.000000
E 268 464 97.000000
E 268 578 100.000000
E 268 626 98.000000
E 269 274 103.000000
E 269 424 91.000000
E 269 469 98.000000
E 270 372 103.000000
E 270 416 100.000000
E 270 634 102.000000
E 271 455 98.000000
E 272 622 95.000000
E 273 624 102.000000
E 274 330 101.000000
E 274 369 106.000000
E 274 512 108.000000
E 275 474 101.000000
E 277 335 104.000000
E 277 415 108.000000
E 278 363 96.000000
E 279 288 99.000000
E 280 409 88.000000
E 280 498 103.000000
E 280 607 98.000000
E 281 361 88.000000
E 281 412 97.000000
E 282 311 103.000000
E 282 327 89.000000
E 282 335 101.000000
E 282 357 106.000000
E 282 447 101.000000
E 283 401 97.000000
E 283 609 98.000000
E 284 394 98.000000
E 284 570 98.000000
E 285 316 96.000000
E 285 365 87.000000
E 285 529 100.000000
E 286 546 100.000000
E 287 300 102.000000
E 287 354 99.000000
E 287 463 105.000000
E 287 593 103.000000
E 287 603 89.000000
E 287 614 104.000000
E 288 524 101.000000
E 289 483 101.000000
E 290 639 108.000000
E 291 490 95.000000
E 291 519 105.000000
E 291 590 98.000000
E 292 473 97.000000
E 293 504 104.000000
E 293 565 94.000000
E 294 387 103.000000
E 294 541 105.000000
E 295 314 98.000000
E 295 569 101.000000
E 298 361 109.000000
E 299 352 102.000000
E 300 538 105.000000
E 300 639 104.000000
E 301 346 110.000000
E 301 568 83.000000
E 302 312 105.000000
E 303 325 102.000000
E 303 413 104.000000
E 304 446 103.000000
E 305 359 110.000000
E 305 382 95.000000
E 305 386 89.000000
E 305 449 96.000000
E 306 525 94.000000
E 307 528 94.000000
E 307 587 102.000000
E 308 337 105.000000
E 308 439 103.000000
E 308 492 100.000000
E 309 482 92.000000
E 310 403 95.000000
E 310 438 97.000000
E 310 546 94.000000
E 312 328 102.000000
E 312 558 101.000000
E 313 596 109.000000
E 315 582 90.000000
E 316 428 96.000000
E 317 359 98.000000
E 317 403 105.000000
E 317 448 104.000000
E 318 416 104.000000
E 320 405 95.000000
E 320 423 102.000000
E 321 616 104.000000
E 322 453 96.000000
E 322 473 95.000000
E 322 605 97.000000
E 322 607 94.000000
E 323 547 93.000000
E 324 495 99.000000
E 325 564 99.000000
E 326 622 101.000000
E 327 486 104.000000
E 327 539 102.000000
E 328 355 100.000000
E 328 598 94.000000
E 329 373 103.000000
E 330 360 97.000000
E 330 383 101.000000
E 330 528 97.000000
E 330 566 105.000000
E 330 636 101.000000
E 331 378 98.000000
E 331 465 98.000000
E 331 545 101.000000
E 332 333 97.000000
E 332 560 102.000000
E 332 621 103.000000
E 333 342 108.000000
E 333 635 95.000000
E 334 447 102.000000
E 335 607 108.000000
E 336 417 96.000000
E 336 598 101.000000
E 336 625 102.000000
E 337 464 103.000000
E 337 471 94.000000
E 339 524 93.000000
E 340 504 92.000000
E 340 506 103.000000
E 342 630 93.000000
E 344 518 100.000000
E 345 353 93.000000
E 345 449 100.000000
E 346 462 99.000000
E 348 463 100.000000
E 348 516 93.000000
E 349 519 99.000000
E 350 435 93.000000
E 350 449 94.000000
E 351 450 101.000000
E 351 583 98.000000
E 353 402 93.000000
E 356 496 96.000000
E 358 567 99.000000
E 359 611 99.000000
E 360 453 105.000000
E 362 613 98.000000
E 363 609 95.000000
E 365 470 99.000000
E 366 441 92.000000
E 368 489 105.000000
E 368 602 108.000000
E 370 544 105.000000
E 371 386 99.000000
E 372 383 106.000000
E 373 565 104.000000
E 373 576 98.000000
E 375 594 95.000000
E 376 597 93.000000
E 377 462 102.000000
E 378 590 103.000000
E 379 472 103.000000
E 381 554 100.000000
E 382 588 95.000000
E 386 394 95.000000
E 387 451 108.000000
E 387 477 103.000000
E 388 460 96.000000
E 388 537 100.000000
E 390 427 107.000000
E 390 436 93.000000
E 390 476 106.000000
E 391 614 89.000000
E 393 451 103.000000
E 393 577 100.000000
E 393 602 93.000000
E 394 409 103.000000
E 395 447 95.000000
E 399 627 97.000000
E 401 470 94.000000
E 403 625 92.000000
E 404 467 91.000000
E 405 440 92.000000
E 405 465 93.000000
E 405 628 92.000000
E 406 442 102.000000
E 406 572 96.000000
E 407 550 99.000000
E 408 502 95.000000
E 408 575 99.000000
E 410 464 97.000000
E 412 487 99.000000
E 413 525 109.000000
E 416 487 105.000000
E 416 535 103.000000
E 416 540 98.000000
E 419 483 91.000000
E 420 537 90.000000
E 420 615 104.000000
E 421 534 101.000000
E 421 638 97.000000
E 422 427 94.000000
E 423 428 107.000000
E 425 617 106.000000
E 426 594 105.000000
E 427 589 97.000000
E 428 568 100.000000
E 429 482 106.000000
E 431 513 100.000000
E 433 501 103.000000
E 434 499 101.000000
E 436 469 96.000000
E 436 639 92.000000
E 437 477 96.000000
E 438 553 100.000000
E 439 481 95.000000
E 439 504 97.000000
E 440 487 101.000000
E 441 553 99.000000
E 441 587 95.000000
E 445 467 89.000000
E 445 478 96.000000
E 446 459 101.000000
E 446 616 97.000000
E 449 466 87.000000
E 449 522 100.000000
E 449 564 101.000000
E 450 550 89.000000
E 451 470 94.000000
E 451 521 98.000000
E 451 569 98.000000
E 452 511 98.000000
E 453 508 100.000000
E 454 473 99.000000
E 454 493 95.000000
E 455 484 105.000000
E 456 490 100.000000
E 457 563 99.000000
E 458 461 96.000000
E 460 635 103.000000
E 461 605 93.000000
E 462 479 102.000000
E 462 625 109.000000
E 463 507 95.000000
E 463 550 97.000000
E 464 599 103.000000
E 464 616 110.000000
E 467 508 106.000000
E 468 495 102.000000
E 468 568 105.000000
E 468 591 90.000000
E 469 508 94.000000
E 469 526 97.000000
E 470 522 106.000000
E 471 538 99.000000
E 472 523 105.000000
E 475 610 105.000000
E 476 598 99.000000
E 479 564 104.000000
E 481 515 92.000000
E 485 499 97.000000
E 487 594 92.000000
E 489 589 98.000000
E 490 549 97.000000
E 492 618 106.000000
E 494 597 102.000000
E 501 592 103.000000
E 503 595 101.000000
E 504 625 107.000000
E 507 599 106.000000
E 510 584 102.000000
E 511 637 99.000000
E 512 581 93.000000
E 513 580 97.000000
E 514 544 88.000000
E 514 561 104.000000
E 515 629 93.000000
E 517 588 96.000000
E 522 560 103.000000
E 523 547 91.000000
E 523 573 100.000000
E 524 541 102.000000
E 531 578 98.000000
E 532 563 101.000000
E 534 535 102.000000
E 535 598 96.000000
E 536 595 97.000000
E 538 543 99.000000
E 538 559 97.000000
E 545 621 100.000000
E 548 603 106.000000
E 550 607 99.000000
E 555 584 100.000000
E 555 599 105.000000
E 556 576 102.000000
E 558 594 100.000000
E 567 623 93.000000
E 572 615 106.000000
E 573 618 102.000000
E 576 603 106.000000
E 577 610 103.000000
E 578 618 100.000000
E 580 640 103.000000
E 582 610 100.000000
E 586 619 102.000000
E 595 633 90.000000
E 609 627 101.000000
END

SECTION Terminals
Terminals 50
TP 1 12.000000
TP 2 952.000000
TP 3 1020.000000
TP 4 144.000000
TP 5 20.000000
TP 6 80.000000
TP 7 1200.000000
TP 8 308.000000
TP 9 40.000000
TP 10 1028.000000
TP 11 4.000000
TP 12 800.000000
TP 13 148.000000
TP 14 952.000000
TP 15 984.000000
TP 16 468.000000
TP 17 996.000000
TP 18 1176.000000
TP 19 1212.000000
TP 20 896.000000
TP 21 116.000000
TP 22 308.000000
TP 23 864.000000
TP 24 604.000000
TP 25 616.000000
TP 26 1056.000000
TP 27 64.000000
TP 28 1220.000000
TP 29 412.000000
TP 30 900.000000
TP 31 68.000000
TP 32 96.000000
TP 33 12.000000
TP 34 668.000000
TP 35 648.000000
TP 36 756.000000
TP 37 1180.000000
TP 38 244.000000
TP 39 308.000000
TP 40 1140.000000
TP 41 1180.000000
TP 42 596.000000
TP 43 1052.000000
TP 44 540.000000
TP 45 32.000000
TP 46 744.000000
TP 47 384.000000
TP 48 832.000000
TP 49 1112.000000
TP 50 88.000000
END

EOF
